
Gurobi 7.5.1 (win64, Python) logging started 08/17/17 15:53:57

Optimize a model with 12 rows, 20 columns and 40 nonzeros
Coefficient statistics:
  Matrix range     [1e+00, 1e+00]
  Objective range  [1e+00, 1e+00]
  Bounds range     [0e+00, 0e+00]
  RHS range        [4e+01, 1e+02]
Presolve removed 4 rows and 4 columns
Presolve time: 0.00s
Presolved: 8 rows, 16 columns, 32 nonzeros

Iteration    Objective       Primal Inf.    Dual Inf.      Time
       0    4.0000000e+02   2.399040e+02   0.000000e+00      0s
       5    5.1000000e+02   0.000000e+00   0.000000e+00      0s

Solved in 5 iterations and 0.00 seconds
Optimal objective  5.100000000e+02

Gurobi 7.5.1 (win64, Python) logging started 08/17/17 15:54:05

Optimize a model with 12 rows, 20 columns and 40 nonzeros
Coefficient statistics:
  Matrix range     [1e+00, 1e+00]
  Objective range  [1e+00, 1e+00]
  Bounds range     [0e+00, 0e+00]
  RHS range        [4e+01, 1e+02]
Presolve removed 4 rows and 4 columns
Presolve time: 0.00s
Presolved: 8 rows, 16 columns, 32 nonzeros

Iteration    Objective       Primal Inf.    Dual Inf.      Time
       0    4.0000000e+02   2.399040e+02   0.000000e+00      0s
       5    5.1000000e+02   0.000000e+00   0.000000e+00      0s

Solved in 5 iterations and 0.00 seconds
Optimal objective  5.100000000e+02

Gurobi 7.5.1 (win64, Python) logging started 08/17/17 15:54:20

Optimize a model with 12 rows, 20 columns and 40 nonzeros
Coefficient statistics:
  Matrix range     [1e+00, 1e+00]
  Objective range  [1e+00, 1e+00]
  Bounds range     [0e+00, 0e+00]
  RHS range        [4e+01, 1e+02]
Presolve removed 4 rows and 4 columns
Presolve time: 0.00s
Presolved: 8 rows, 16 columns, 32 nonzeros

Iteration    Objective       Primal Inf.    Dual Inf.      Time
       0    4.0000000e+02   2.399040e+02   0.000000e+00      0s
       5    5.1000000e+02   0.000000e+00   0.000000e+00      0s

Solved in 5 iterations and 0.00 seconds
Optimal objective  5.100000000e+02

Gurobi 7.5.1 (win64, Python) logging started 08/17/17 16:01:56

Optimize a model with 12 rows, 20 columns and 40 nonzeros
Coefficient statistics:
  Matrix range     [1e+00, 1e+00]
  Objective range  [1e+00, 1e+00]
  Bounds range     [0e+00, 0e+00]
  RHS range        [4e+01, 1e+02]
Presolve removed 4 rows and 4 columns
Presolve time: 0.00s
Presolved: 8 rows, 16 columns, 32 nonzeros

Iteration    Objective       Primal Inf.    Dual Inf.      Time
       0    4.0000000e+02   2.399040e+02   0.000000e+00      0s
       5    5.1000000e+02   0.000000e+00   0.000000e+00      0s

Solved in 5 iterations and 0.00 seconds
Optimal objective  5.100000000e+02

Gurobi 7.5.1 (win64, Python) logging started 08/17/17 16:01:59

Optimize a model with 12 rows, 20 columns and 40 nonzeros
Coefficient statistics:
  Matrix range     [1e+00, 1e+00]
  Objective range  [1e+00, 1e+00]
  Bounds range     [0e+00, 0e+00]
  RHS range        [4e+01, 1e+02]
Presolve removed 4 rows and 4 columns
Presolve time: 0.00s
Presolved: 8 rows, 16 columns, 32 nonzeros

Iteration    Objective       Primal Inf.    Dual Inf.      Time
       0    4.0000000e+02   2.399040e+02   0.000000e+00      0s
       5    5.1000000e+02   0.000000e+00   0.000000e+00      0s

Solved in 5 iterations and 0.00 seconds
Optimal objective  5.100000000e+02

Gurobi 7.5.1 (win64, Python) logging started 08/17/17 16:02:00

Optimize a model with 12 rows, 20 columns and 40 nonzeros
Coefficient statistics:
  Matrix range     [1e+00, 1e+00]
  Objective range  [1e+00, 1e+00]
  Bounds range     [0e+00, 0e+00]
  RHS range        [4e+01, 1e+02]
Presolve removed 4 rows and 4 columns
Presolve time: 0.00s
Presolved: 8 rows, 16 columns, 32 nonzeros

Iteration    Objective       Primal Inf.    Dual Inf.      Time
       0    4.0000000e+02   2.399040e+02   0.000000e+00      0s
       5    5.1000000e+02   0.000000e+00   0.000000e+00      0s

Solved in 5 iterations and 0.00 seconds
Optimal objective  5.100000000e+02

Gurobi 7.5.1 (win64, Python) logging started 08/17/17 16:02:00

Optimize a model with 12 rows, 20 columns and 40 nonzeros
Coefficient statistics:
  Matrix range     [1e+00, 1e+00]
  Objective range  [1e+00, 1e+00]
  Bounds range     [0e+00, 0e+00]
  RHS range        [4e+01, 1e+02]
Presolve removed 4 rows and 4 columns
Presolve time: 0.00s
Presolved: 8 rows, 16 columns, 32 nonzeros

Iteration    Objective       Primal Inf.    Dual Inf.      Time
       0    4.0000000e+02   2.399040e+02   0.000000e+00      0s
       5    5.1000000e+02   0.000000e+00   0.000000e+00      0s

Solved in 5 iterations and 0.00 seconds
Optimal objective  5.100000000e+02

Gurobi 7.5.1 (win64, Python) logging started 08/17/17 16:02:01

Optimize a model with 12 rows, 20 columns and 40 nonzeros
Coefficient statistics:
  Matrix range     [1e+00, 1e+00]
  Objective range  [1e+00, 1e+00]
  Bounds range     [0e+00, 0e+00]
  RHS range        [4e+01, 1e+02]
Presolve removed 4 rows and 4 columns
Presolve time: 0.00s
Presolved: 8 rows, 16 columns, 32 nonzeros

Iteration    Objective       Primal Inf.    Dual Inf.      Time
       0    4.0000000e+02   2.399040e+02   0.000000e+00      0s
       5    5.1000000e+02   0.000000e+00   0.000000e+00      0s

Solved in 5 iterations and 0.00 seconds
Optimal objective  5.100000000e+02

Gurobi 7.5.1 (win64, Python) logging started 08/17/17 16:02:01

Optimize a model with 12 rows, 20 columns and 40 nonzeros
Coefficient statistics:
  Matrix range     [1e+00, 1e+00]
  Objective range  [1e+00, 1e+00]
  Bounds range     [0e+00, 0e+00]
  RHS range        [4e+01, 1e+02]
Presolve removed 4 rows and 4 columns
Presolve time: 0.00s
Presolved: 8 rows, 16 columns, 32 nonzeros

Iteration    Objective       Primal Inf.    Dual Inf.      Time
       0    4.0000000e+02   2.399040e+02   0.000000e+00      0s
       5    5.1000000e+02   0.000000e+00   0.000000e+00      0s

Solved in 5 iterations and 0.00 seconds
Optimal objective  5.100000000e+02

Gurobi 7.5.1 (win64, Python) logging started 08/17/17 16:02:01

Optimize a model with 12 rows, 20 columns and 40 nonzeros
Coefficient statistics:
  Matrix range     [1e+00, 1e+00]
  Objective range  [1e+00, 1e+00]
  Bounds range     [0e+00, 0e+00]
  RHS range        [4e+01, 1e+02]
Presolve removed 4 rows and 4 columns
Presolve time: 0.00s
Presolved: 8 rows, 16 columns, 32 nonzeros

Iteration    Objective       Primal Inf.    Dual Inf.      Time
       0    4.0000000e+02   2.399040e+02   0.000000e+00      0s
       5    5.1000000e+02   0.000000e+00   0.000000e+00      0s

Solved in 5 iterations and 0.00 seconds
Optimal objective  5.100000000e+02

Gurobi 7.5.1 (win64, Python) logging started 08/17/17 16:02:02

Optimize a model with 12 rows, 20 columns and 40 nonzeros
Coefficient statistics:
  Matrix range     [1e+00, 1e+00]
  Objective range  [1e+00, 1e+00]
  Bounds range     [0e+00, 0e+00]
  RHS range        [4e+01, 1e+02]
Presolve removed 4 rows and 4 columns
Presolve time: 0.00s
Presolved: 8 rows, 16 columns, 32 nonzeros

Iteration    Objective       Primal Inf.    Dual Inf.      Time
       0    4.0000000e+02   2.399040e+02   0.000000e+00      0s
       5    5.1000000e+02   0.000000e+00   0.000000e+00      0s

Solved in 5 iterations and 0.00 seconds
Optimal objective  5.100000000e+02

Gurobi 7.5.1 (win64, Python) logging started 08/17/17 16:02:02

Optimize a model with 12 rows, 20 columns and 40 nonzeros
Coefficient statistics:
  Matrix range     [1e+00, 1e+00]
  Objective range  [1e+00, 1e+00]
  Bounds range     [0e+00, 0e+00]
  RHS range        [4e+01, 1e+02]
Presolve removed 4 rows and 4 columns
Presolve time: 0.00s
Presolved: 8 rows, 16 columns, 32 nonzeros

Iteration    Objective       Primal Inf.    Dual Inf.      Time
       0    4.0000000e+02   2.399040e+02   0.000000e+00      0s
       5    5.1000000e+02   0.000000e+00   0.000000e+00      0s

Solved in 5 iterations and 0.00 seconds
Optimal objective  5.100000000e+02

Gurobi 7.5.1 (win64, Python) logging started 08/17/17 16:02:02

Optimize a model with 12 rows, 20 columns and 40 nonzeros
Coefficient statistics:
  Matrix range     [1e+00, 1e+00]
  Objective range  [1e+00, 1e+00]
  Bounds range     [0e+00, 0e+00]
  RHS range        [4e+01, 1e+02]
Presolve removed 4 rows and 4 columns
Presolve time: 0.00s
Presolved: 8 rows, 16 columns, 32 nonzeros

Iteration    Objective       Primal Inf.    Dual Inf.      Time
       0    4.0000000e+02   2.399040e+02   0.000000e+00      0s
       5    5.1000000e+02   0.000000e+00   0.000000e+00      0s

Solved in 5 iterations and 0.00 seconds
Optimal objective  5.100000000e+02

Gurobi 7.5.1 (win64, Python) logging started 08/17/17 16:02:03

Optimize a model with 12 rows, 20 columns and 40 nonzeros
Coefficient statistics:
  Matrix range     [1e+00, 1e+00]
  Objective range  [1e+00, 1e+00]
  Bounds range     [0e+00, 0e+00]
  RHS range        [4e+01, 1e+02]
Presolve removed 4 rows and 4 columns
Presolve time: 0.00s
Presolved: 8 rows, 16 columns, 32 nonzeros

Iteration    Objective       Primal Inf.    Dual Inf.      Time
       0    4.0000000e+02   2.399040e+02   0.000000e+00      0s
       5    5.1000000e+02   0.000000e+00   0.000000e+00      0s

Solved in 5 iterations and 0.00 seconds
Optimal objective  5.100000000e+02
